(define-fun rswitch () Int 0)

        ((Start Bool) (Loc Int))
        
           ((Start Bool (
                (=> Start Start)
                (lst Loc)
                (dlst Loc)))
            (Loc Int (x nil)))
)

(synth-fun rswitch () Int

           ((Start Int))
           ((Start Int (0 1)))

)

